GLPSOL--GLPK LP/MIP Solver 5.0
Parameter(s) specified in the command line:
 --lp ../modeles/10_149.lp --log 10_149.log
Reading problem data from '../modeles/10_149.lp'...
1531 rows, 3000 columns, 10480 non-zeros
1490 integer variables, all of which are binary
4547 lines were read
GLPK Integer Optimizer 5.0
1531 rows, 3000 columns, 10480 non-zeros
1490 integer variables, all of which are binary
Preprocessing...
1460 constraint coefficient(s) were reduced
1531 rows, 2990 columns, 10470 non-zeros
1490 integer variables, all of which are binary
Scaling...
 A: min|aij| =  1.802e-04  max|aij| =  4.000e+00  ratio =  2.220e+04
GM: min|aij| =  8.192e-02  max|aij| =  1.221e+01  ratio =  1.490e+02
EQ: min|aij| =  6.711e-03  max|aij| =  1.000e+00  ratio =  1.490e+02
2N: min|aij| =  3.906e-03  max|aij| =  1.741e+00  ratio =  4.456e+02
Constructing initial basis...
Size of triangular part is 1531
Solving LP relaxation...
GLPK Simplex Optimizer 5.0
1531 rows, 2990 columns, 10470 non-zeros
      0: obj =   2.000000000e+01 inf =   5.670e+02 (21)
    129: obj =   4.991216216e-01 inf =   0.000e+00 (0)
*   361: obj =  -3.160025168e+00 inf =   6.709e-15 (0)
OPTIMAL LP SOLUTION FOUND
Integer optimization begins...
Long-step dual simplex will be used
+   361: mip =     not found yet >=              -inf        (1; 0)
+   363: >>>>>  -3.160025168e+00 >=  -3.160025168e+00 < 0.1% (3; 0)
+   363: mip =  -3.160025168e+00 >=     tree is empty   0.0% (0; 5)
INTEGER OPTIMAL SOLUTION FOUND
Time used:   0.0 secs
Memory used: 4.3 Mb (4487528 bytes)
